NAME:32_16
TYPE: TSP
DIMENSION: 32
EDGE_WEIGHT_TYPE: EXPLICIT
EDGE_WEIGHT_FORMAT: UPPER_ROW
EDGE_WEIGHT_SECTION
648 648 648 648 648 648 648 648 648 648 648 648 648 648 648 0 234 234 234 261 270 220 220 220 224 224 228 232 270 232 232 648 648 648 648 648 648 648 648 648 648 648 648 648 648 238 0 220 256 283 256 238 234 230 230 226 226 226 256 222 218 648 648 648 648 648 648 648 648 648 648 648 648 648 306 320 0 324 279 252 310 310 310 314 314 318 318 252 318 318 648 648 648 648 648 648 648 648 648 648 648 648 238 216 216 0 279 252 238 234 230 230 226 226 226 252 222 218 648 648 648 648 648 648 648 648 648 648 648 243 261 261 261 0 225 247 247 247 251 251 255 259 261 259 259 648 648 648 648 648 648 648 648 648 648 270 288 252 288 315 0 274 274 274 278 278 282 286 252 286 286 648 648 648 648 648 648 648 648 648 216 230 234 234 261 270 0 216 216 220 220 224 228 270 228 228 648 648 648 648 648 648 648 648 220 230 234 238 265 270 220 0 216 220 220 224 228 270 228 228 648 648 648 648 648 648 648 224 230 234 242 269 270 224 220 0 220 220 224 228 270 228 228 648 648 648 648 648 648 224 226 230 242 269 266 224 220 216 0 216 220 224 266 224 224 648 648 648 648 648 228 226 230 246 273 266 228 224 220 220 0 220 224 266 224 224 648 648 648 648 228 222 226 246 273 262 228 224 220 220 216 0 220 262 220 220 648 648 648 228 218 222 246 273 258 228 224 220 220 216 216 0 258 216 216 648 648 270 288 216 288 279 216 274 274 274 278 278 282 286 0 286 286 648 232 218 222 250 277 258 232 228 224 224 220 220 220 258 0 216 236 218 222 254 281 258 236 232 228 228 224 224 224 258 220 0 648 648 648 648 648 648 648 648 648 648 648 648 648 648 648 648 648 648 648 648 648 648 648 648 648 648 648 648 648 648 648 648 648 648 648 648 648 648 648 648 648 648 648 648 648 648 648 648 648 648 648 648 648 648 648 648 648 648 648 648 648 648 648 648 648 648 648 648 648 648 648 648 648 648 648 648 648 648 648 648 648 648 648 648 648 648 648 648 648 648 648 648 648 648 648 648 648 648 648 648 648 648 648 648 648 648 648 648 648 648 648 648 648 648 648 648 648 648 648 648 